Version identifier: 12.10.0.0 | 2019-11-26 | 843d4de
CPXPARAM_WorkMem                                 28672
Tried aggregator 2 times.
MIP Presolve modified 28 coefficients.
Aggregator did 30 substitutions.
Reduced MIP has 134 rows, 160 columns, and 620 nonzeros.
Reduced MIP has 160 binaries, 0 generals, 0 SOSs, and 0 indicators.
Presolve time = 0,00 sec. (0,72 ticks)
Found incumbent of value 633,000000 after 0,00 sec. (1,27 ticks)
Probing time = 0,00 sec. (0,23 ticks)
Tried aggregator 1 time.
Detecting symmetries...
MIP Presolve eliminated 23 rows and 0 columns.
MIP Presolve added 46 rows and 0 columns.
Reduced MIP has 157 rows, 160 columns, and 643 nonzeros.
Reduced MIP has 160 binaries, 0 generals, 0 SOSs, and 0 indicators.
Presolve time = 0,00 sec. (0,69 ticks)
Probing time = 0,00 sec. (0,23 ticks)
Clique table members: 424.
MIP emphasis: balance optimality and feasibility.
MIP search method: dynamic search.
Parallel mode: deterministic, using up to 16 threads.
Root relaxation solution time = 0,00 sec. (0,49 ticks)

        Nodes                                         Cuts/
   Node  Left     Objective  IInf  Best Integer    Best Bound    ItCnt     Gap

*     0+    0                          633,0000        0,0000           100,00%
*     0+    0                          388,0000        0,0000           100,00%
*     0+    0                          366,0000        0,0000           100,00%
*     0+    0                          343,0000        0,0000           100,00%
      0     0      160,0000    84      343,0000      160,0000       75   53,35%
*     0+    0                          335,0000      160,0000            52,24%
      0     0      160,2646    84      335,0000     Cuts: 139      116   52,16%
      0     0      165,3836    84      335,0000     Cuts: 139      193   50,63%
      0     0      167,5548    84      335,0000     Cuts: 136      228   49,98%
      0     0      169,0046    84      335,0000      Cuts: 28      239   49,55%
      0     0      169,2366    84      335,0000       Cuts: 3      266   49,48%
Detecting symmetries...
      0     0      169,2749    84      335,0000      Cuts: 57      267   49,47%
      0     0      169,3455    84      335,0000   Impl Bds: 1      291   49,45%
      0     0      169,4539    84      335,0000      Cuts: 32      296   49,42%
      0     0      169,6582    84      335,0000      Cuts: 11      317   49,36%
      0     0      169,7949    84      335,0000      Cuts: 22      348   49,31%
      0     0      169,8394    84      335,0000      Cuts: 25      379   49,30%
*     0+    0                          316,0000      169,8394            46,25%
Detecting symmetries...
      0     2      169,8394   154      316,0000      172,9286      379   45,28%
Elapsed time = 0,10 sec. (38,14 ticks, tree = 0,02 MB, solutions = 6)

GUB cover cuts applied:  4
Clique cuts applied:  34
Cover cuts applied:  121
Implied bound cuts applied:  1
Mixed integer rounding cuts applied:  60
Zero-half cuts applied:  8
Gomory fractional cuts applied:  8

Root node processing (before b&c):
  Real time             =    0,10 sec. (38,00 ticks)
Parallel b&c, 16 threads:
  Real time             =    0,11 sec. (50,51 ticks)
  Sync time (average)   =    0,04 sec.
  Wait time (average)   =    0,00 sec.
                          ------------
Total (root+branch&cut) =    0,21 sec. (88,50 ticks)
